100
32
10
16
3
23
28
22
17
26
3
2
18
20
2
20
7
22
23
8
22
26
1
10
22
3
15
14
27
8
2
32
1
6
14
25
29
3
13
7
12
12
8
18
1
12
28
14
22
19
25
2
21
13
10
4
7
22
29
11
31
21
18
16
23
4
17
26
15
18
4
3
1
29
6
26
10
3
2
4
13
21
19
9
12
16
2
31
2
7
7
10
31
22
13
18
4
26
32
2
11
20